(set-logic ALL)
(declare-fun var0 () String)
(assert (str.in_re var0 (re.++ (re.union (re.union (str.to_re "0") (str.to_re "11")) (re.union (str.to_re "222") (str.to_re "333"))) (re.++ (re.+ (re.+ (str.to_re "4"))) (re.++ (re.* (re.+ (str.to_re "555"))) (re.++ (re.union (re.union (str.to_re "66") (str.to_re "77")) (re.union (str.to_re "88") (str.to_re "999"))) (re.++ (re.* (re.union (str.to_re "a") (str.to_re "bb"))) (re.++ (re.union (re.union (str.to_re "ccc") (str.to_re "dd")) (re.union (str.to_re "ee") (str.to_re "f"))) (re.++ (re.+ (re.+ (str.to_re "ggg"))) (re.++ (re.+ (re.union (str.to_re "hh") (str.to_re "iii"))) (re.++ (re.union (re.+ (str.to_re "jjj")) (re.+ (str.to_re "kk"))) (re.union (re.union (str.to_re "lll") (str.to_re "mmm")) (re.union (str.to_re "n") (str.to_re "ooo"))))))))))))))
(assert (<= 51 (str.len var0)))
(check-sat)